
Gurobi 11.0.1 (win64) logging started Thu May 16 19:20:55 2024

Set parameter LogFile to value "output/solver_log14.txt"
Gurobi Optimizer version 11.0.1 build v11.0.1rc0 (win64 - Windows 11.0 (22631.2))

CPU model: 11th Gen Intel(R) Core(TM) i7-1165G7 @ 2.80GHz, instruction set [SSE2|AVX|AVX2|AVX512]
Thread count: 4 physical cores, 8 logical processors, using up to 8 threads

Optimize a model with 4181 rows, 1026 columns and 75766 nonzeros
Model fingerprint: 0x3050c272
Variable types: 568 continuous, 458 integer (458 binary)
Coefficient statistics:
  Matrix range     [4e-01, 1e+05]
  Objective range  [1e+00, 1e+02]
  Bounds range     [1e+00, 1e+00]
  RHS range        [1e-02, 1e+05]

User MIP start produced solution with objective 93621.4 (0.01s)
User MIP start produced solution with objective 93621.4 (0.01s)
Loaded user MIP start with objective 93621.4

Presolve removed 363 rows and 241 columns
Presolve time: 0.13s
Presolved: 3818 rows, 785 columns, 71596 nonzeros
Variable types: 519 continuous, 266 integer (265 binary)

Root relaxation: objective 9.371660e+04, 1005 iterations, 0.05 seconds (0.09 work units)

    Nodes    |    Current Node    |     Objective Bounds      |     Work
 Expl Unexpl |  Obj  Depth IntInf | Incumbent    BestBd   Gap | It/Node Time

     0     0 93716.5950    0    2 93621.4190 93716.5950  0.10%     -    0s

Explored 1 nodes (1233 simplex iterations) in 0.39 seconds (0.54 work units)
Thread count was 8 (of 8 available processors)

Solution count 2: 93621.4 93621.4 

Optimal solution found (tolerance 1.00e-04)
Best objective 9.362141896596e+04, best bound 9.362141896596e+04, gap 0.0000%
